20
1 0 1
2 0 30
2 1 80
3 0 48
3 1 1
3 2 63
4 0 64
4 1 4
4 2 39
4 3 19
5 0 51
5 1 19
5 2 35
5 3 5
5 4 57
6 0 11
6 1 30
6 2 74
6 3 54
6 4 41
6 5 13
7 0 33
7 1 9
7 2 16
7 3 23
7 4 62
7 5 69
7 6 50
8 0 69
8 1 9
8 2 42
8 3 25
8 4 32
8 5 43
8 6 35
8 7 55
9 0 16
9 1 26
9 2 68
9 3 67
9 4 64
9 5 6
9 6 17
9 7 52
9 8 78
10 0 17
10 1 69
10 2 49
10 3 4
10 4 47
10 5 24
10 6 29
10 7 53
10 8 65
10 9 77
11 0 37
11 1 21
11 2 57
11 3 23
11 4 18
11 5 62
11 6 3
11 7 21
11 8 44
11 9 36
11 10 9
12 0 80
12 1 71
12 2 57
12 3 34
12 4 61
12 5 8
12 6 38
12 7 80
12 8 55
12 9 44
12 10 35
12 11 12
13 0 5
13 1 72
13 2 8
13 3 12
13 4 70
13 5 27
13 6 49
13 7 51
13 8 5
13 9 14
13 10 59
13 11 72
13 12 43
14 0 21
14 1 42
14 2 36
14 3 14
14 4 22
14 5 27
14 6 37
14 7 2
14 8 22
14 9 42
14 10 71
14 11 51
14 12 56
14 13 70
15 0 33
15 1 20
15 2 72
15 3 26
15 4 58
15 5 15
15 6 74
15 7 4
15 8 34
15 9 53
15 10 74
15 11 47
15 12 61
15 13 75
15 14 50
16 0 47
16 1 7
16 2 39
16 3 53
16 4 46
16 5 39
16 6 49
16 7 53
16 8 54
16 9 14
16 10 57
16 11 31
16 12 8
16 13 41
16 14 77
16 15 36
17 0 5
17 1 65
17 2 33
17 3 20
17 4 26
17 5 13
17 6 41
17 7 13
17 8 28
17 9 9
17 10 57
17 11 25
17 12 9
17 13 63
17 14 41
17 15 16
17 16 65
18 0 67
18 1 17
18 2 13
18 3 7
18 4 28
18 5 22
18 6 43
18 7 38
18 8 37
18 9 75
18 10 52
18 11 17
18 12 46
18 13 46
18 14 36
18 15 59
18 16 11
18 17 66
19 0 9
19 1 20
19 2 39
19 3 51
19 4 78
19 5 24
19 6 22
19 7 60
19 8 62
19 9 42
19 10 38
19 11 2
19 12 64
19 13 40
19 14 71
19 15 76
19 16 55
19 17 57
19 18 56
